Problem:    
Rows:       248
Columns:    89 (72 integer, 72 binary)
Non-zeros:  820
Status:     INTEGER OPTIMAL
Objective:  value = 21.218844 (MINimum)

   No.   Row name        Activity     Lower bound   Upper bound
------ ------------    ------------- ------------- -------------
     1 r.5                   521.219             0               
     2 r.6                  -487.613      -496.252               
     3 r.7                   21.2188             0               
     4 r.8                  -466.682        -490.9               
     5 r.9                   521.219             0               
     6 r.10                  -494.36      -495.335               
     7 r.11                  21.2188             0               
     8 r.12                  9.37836       -492.13               
     9 r.13                  21.2188             0               
    10 r.14                 -473.474      -494.693               
    11 r.15                  521.219             0               
    12 r.16                  -482.09      -495.798               
    13 r.17                  21.2188             0               
    14 r.18                 -476.112      -497.331               
    15 r.19                  521.219             0               
    16 r.20                 -489.292       -495.67               
    17 r.21                  21.2188             0               
    18 r.22                  17.6964      -497.691               
    19 r.23                  521.219             0               
    20 r.24                 -486.292      -498.365               
    21 r.25                  21.2188             0               
    22 r.26                  21.2188      -494.976               
    23 r.27                  521.219             0               
    24 r.28                  -479.09      -499.786               
    25 r.29                  21.2188             0               
    26 r.30                  8.63957      -495.297               
    27 r.31                  521.219             0               
    28 r.32                 -478.781      -499.691               
    29 r.33                  521.219             0               
    30 r.34                 -499.622      -499.622               
    31 r.35                  21.2188             0               
    32 r.36                  0.37836      -499.391               
    33 r.37                        1             1             = 
    34 r.38                        1             1             = 
    35 r.39                        1             1             = 
    36 r.40                        1             1             = 
    37 r.41                        1             1             = 
    38 r.42                        1             1             = 
    39 r.43                        1             1             = 
    40 r.44                        1             1             = 
    41 r.45                  490.252       4.66547               
    42 r.46                 -493.252      -496.252               
    43 r.47                   479.06       7.87016               
    44 r.48                  -476.06        -490.9               
    45 r.49                  11.1381       5.30671               
    46 r.50                 -11.1381      -496.252               
    47 r.51                  487.592        4.2019               
    48 r.52                 -487.592        -490.9               
    49 r.53                  8.50083       2.66947               
    50 r.54                 -8.50083      -496.252               
    51 r.55                   480.39       4.32989               
    52 r.56                  -480.39        -490.9               
    53 r.57                  2.30892       2.30892               
    54 r.58                 -2.30892      -496.252               
    55 r.59                   483.39       1.63526               
    56 r.60                  -483.39        -490.9               
    57 r.61                  5.83137      -491.976               
    58 r.62                 -494.477      -496.786               
    59 r.63                    490.9      -491.976               
    60 r.64                 -9.40821      -496.786               
    61 r.65                  493.252       4.70277               
    62 r.66                 -493.252      -496.252               
    63 r.67                    490.9      0.308692               
    64 r.68                   -490.9        -490.9               
    65 r.69                 -484.991      -493.252               
    66 r.70                  -470.06        -487.9               
    67 r.71                 -484.991      -493.252               
    68 r.72                  -470.06        -487.9               
    69 r.73                  3.74791       3.74791               
    70 r.74                 -6.74791      -495.335               
    71 r.75                    26.94       9.09952               
    72 r.76                   -23.94       -492.13               
    73 r.77                   17.886       5.30671               
    74 r.78                  -17.886      -495.335               
    75 r.79                  11.5318        4.2019               
    76 r.80                 -11.5318       -492.13               
    77 r.81                  15.2487       2.66947               
    78 r.82                 -15.2487      -495.335               
    79 r.83                  4.32989       4.32989               
    80 r.84                 -4.32989       -492.13               
    81 r.85                  9.05683       2.30892               
    82 r.86                 -9.05683      -495.335               
    83 r.87                  7.32989       1.63526               
    84 r.88                 -7.32989       -492.13               
    85 r.89                  12.5793       5.02428               
    86 r.90                 -12.5793      -495.335               
    87 r.91                  14.5318      0.213756               
    88 r.92                 -14.5318       -492.13               
    89 r.93                        0      -492.297               
    90 r.94                 -487.421      -496.691               
    91 r.95                  2.26121      -492.297               
    92 r.96                  -485.16      -496.691               
    93 r.97                 -491.739      -492.335               
    94 r.98                        6       -489.13               
    95 r.99                 -491.739      -492.335               
    96 r.100                       6       -489.13               
    97 r.101                 485.862       3.74791               
    98 r.102                -488.862      -494.693               
    99 r.103                 15.4082       9.09952               
   100 r.104                -12.4082      -495.798               
   101 r.105                 479.114       4.66547               
   102 r.106                -482.114      -494.693               
   103 r.107                 491.468       7.87016               
   104 r.108                -488.468      -495.798               
   105 r.109                 2.63724      -491.693               
   106 r.110                -5.97816      -492.798               
   107 r.111                -484.183      -491.693               
   108 r.112                -492.798      -492.798               
   109 r.113                 491.171       2.30892               
   110 r.114                -491.171      -494.693               
   111 r.115                 495.798       1.63526               
   112 r.116                -495.798      -495.798               
   113 r.117                 494.693       5.02428               
   114 r.118                -494.693      -494.693               
   115 r.119                       3      0.213756               
   116 r.120                      -3      -495.798               
   117 r.121                 482.114      -492.297               
   118 r.122                -5.30671      -496.691               
   119 r.123                -9.27058      -492.297               
   120 r.124                -496.691      -496.691               
   121 r.125                -473.853      -491.693               
   122 r.126                -482.468      -492.798               
   123 r.127                -473.853      -491.693               
   124 r.128                -482.468      -492.798               
   125 r.129                 488.499       3.74791               
   126 r.130                -491.499      -497.331               
   127 r.131                 22.6101       9.09952               
   128 r.132                -19.6101       -495.67               
   129 r.133                 481.751       4.66547               
   130 r.134                -484.751      -497.331               
   131 r.135                  498.67       7.87016               
   132 r.136                 -495.67       -495.67               
   133 r.137                 2.63724      -491.693               
   134 r.138                -5.97816      -492.798               
   135 r.139                -484.183      -491.693               
   136 r.140                -492.798      -492.798               
   137 r.141                 493.808       2.30892               
   138 r.142                -493.808      -497.331               
   139 r.143                       3       1.63526               
   140 r.144                      -3       -495.67               
   141 r.145                 497.331       5.02428               
   142 r.146                -497.331      -497.331               
   143 r.147                 10.2019      0.213756               
   144 r.148                -10.2019       -495.67               
   145 r.149                 484.751      -492.297               
   146 r.150                -2.66947      -496.691               
   147 r.151                -2.06868      -492.297               
   148 r.152                -489.489      -496.691               
   149 r.153                 -476.49      -491.331               
   150 r.154                 -489.67       -489.67               
   151 r.155                 -476.49      -491.331               
   152 r.156                 -489.67       -489.67               
   153 r.157                 494.691       3.74791               
   154 r.158                -497.691      -497.691               
   155 r.159                 19.6101       9.09952               
   156 r.160                -16.6101      -498.365               
   157 r.161                 487.943       4.66547               
   158 r.162                -490.943      -497.691               
   159 r.163                  495.67       7.87016               
   160 r.164                 -492.67      -498.365               
   161 r.165                 8.82916       5.30671               
   162 r.166                -8.82916      -497.691               
   163 r.167                  4.2019        4.2019               
   164 r.168                 -4.2019      -498.365               
   165 r.169                 6.19191       2.66947               
   166 r.170                -6.19191      -497.691               
   167 r.171                     497       4.32989               
   168 r.172                    -497      -498.365               
   169 r.173                 3.52245      -491.976               
   170 r.174                -496.786      -496.786               
   171 r.175                 7.51059      -491.976               
   172 r.176                -492.798      -496.786               
   173 r.177                -9.05683      -492.297               
   174 r.178                -496.478      -496.691               
   175 r.179                -5.06868      -492.297               
   176 r.180                -492.489      -496.691               
   177 r.181                  17.318      -491.691               
   178 r.182                 -486.67      -492.365               
   179 r.183                  17.318      -491.691               
   180 r.184                 -486.67      -492.365               
   181 r.185                 5.83137      -491.976               
   182 r.186                -494.477      -496.786               
   183 r.187                   490.9      -491.976               
   184 r.188                -9.40821      -496.786               
   185 r.189                 484.421       4.66547               
   186 r.190                -487.421      -494.976               
   187 r.191                 488.468       7.87016               
   188 r.192                -485.468      -499.786               
   189 r.193                 5.30671       5.30671               
   190 r.194                -5.30671      -494.976               
   191 r.195                     497        4.2019               
   192 r.196                    -497      -499.786               
   193 r.197                 2.66947       2.66947               
   194 r.198                -2.66947      -494.976               
   195 r.199                 489.798       4.32989               
   196 r.200                -489.798      -499.786               
   197 r.201                 3.52245      -491.976               
   198 r.202                -496.786      -496.786               
   199 r.203                 7.51059      -491.976               
   200 r.204                -492.798      -496.786               
   201 r.205                 487.421       4.70277               
   202 r.206                -487.421      -494.976               
   203 r.207                0.308692      0.308692               
   204 r.208               -0.308692      -499.786               
   205 r.209                 3.74791       3.74791               
   206 r.210                -6.74791      -495.297               
   207 r.211                 12.0995       9.09952               
   208 r.212                -9.09952      -499.691               
   209 r.213                       0      -492.297               
   210 r.214                -487.421      -496.691               
   211 r.215                 2.26121      -492.297               
   212 r.216                 -485.16      -496.691               
   213 r.217                 482.114      -492.297               
   214 r.218                -5.30671      -496.691               
   215 r.219                -9.27058      -492.297               
   216 r.220                -496.691      -496.691               
   217 r.221                 484.751      -492.297               
   218 r.222                -2.66947      -496.691               
   219 r.223                -2.06868      -492.297               
   220 r.224                -489.489      -496.691               
   221 r.225                -9.05683      -492.297               
   222 r.226                -496.478      -496.691               
   223 r.227                -5.06868      -492.297               
   224 r.228                -492.489      -496.691               
   225 r.229                 12.5793       5.02428               
   226 r.230                -12.5793      -495.297               
   227 r.231                 499.691      0.213756               
   228 r.232                -499.691      -499.691               
   229 r.233                -484.991      -493.252               
   230 r.234                 -470.06        -487.9               
   231 r.235                -484.991      -493.252               
   232 r.236                 -470.06        -487.9               
   233 r.237                -491.739      -492.335               
   234 r.238                       6       -489.13               
   235 r.239                -491.739      -492.335               
   236 r.240                       6       -489.13               
   237 r.241                -473.853      -491.693               
   238 r.242                -482.468      -492.798               
   239 r.243                -473.853      -491.693               
   240 r.244                -482.468      -492.798               
   241 r.245                 -476.49      -491.331               
   242 r.246                 -489.67       -489.67               
   243 r.247                 -476.49      -491.331               
   244 r.248                 -489.67       -489.67               
   245 r.249                  17.318      -491.691               
   246 r.250                 -486.67      -492.365               
   247 r.251                  17.318      -491.691               
   248 r.252                 -486.67      -492.365               

   No. Column name       Activity     Lower bound   Upper bound
------ ------------    ------------- ------------- -------------
     1 tt                    21.2188             0               
     2 s_1_1        *              1             0             1 
     3 t_1_1                 5.83137             0               
     4 s_1_6        *              0             0             1 
     5 s_2_1        *              0             0             1 
     6 t_2_1                   490.9             0               
     7 s_2_6        *              1             0             1 
     8 s_1_2        *              1             0             1 
     9 t_1_2                 12.5793             0               
    10 s_1_7        *              0             0             1 
    11 s_2_2        *              0             0             1 
    12 t_2_2                 14.8405             0               
    13 s_2_7        *              1             0             1 
    14 s_1_3        *              0             0             1 
    15 t_1_3                 494.693             0               
    16 s_2_3        *              1             0             1 
    17 t_2_3                 3.30869             0               
    18 s_1_4        *              0             0             1 
    19 t_1_4                 497.331             0               
    20 s_2_4        *              1             0             1 
    21 t_2_4                 10.5106             0               
    22 s_1_5        *              0             0             1 
    23 t_1_5                 3.52245             0               
    24 s_2_5        *              1             0             1 
    25 t_2_5                 7.51059             0               
    26 t_1_6                       0             0               
    27 t_2_6                0.308692             0               
    28 t_1_7                 12.5793             0               
    29 t_2_7                       0             0               
    30 s_1_8        *              1             0             1 
    31 t_1_8                 20.8405             0               
    32 s_2_8        *              0             0             1 
    33 t_2_8                 20.8405             0               
    34 u_1_1_2      *              1             0             1 
    35 u_2_1_2      *              0             0             1 
    36 u_1_1_3      *              1             0             1 
    37 u_2_1_3      *              0             0             1 
    38 u_1_1_4      *              1             0             1 
    39 u_2_1_4      *              0             0             1 
    40 u_1_1_5      *              0             0             1 
    41 u_2_1_5      *              0             0             1 
    42 u_1_1_7      *              1             0             1 
    43 u_2_1_7      *              0             0             1 
    44 u_1_2_1      *              0             0             1 
    45 u_2_2_1      *              1             0             1 
    46 u_1_2_3      *              1             0             1 
    47 u_2_2_3      *              0             0             1 
    48 u_1_2_4      *              1             0             1 
    49 u_2_2_4      *              0             0             1 
    50 u_1_2_5      *              0             0             1 
    51 u_2_2_5      *              0             0             1 
    52 u_1_2_6      *              0             0             1 
    53 u_2_2_6      *              0             0             1 
    54 u_1_3_1      *              0             0             1 
    55 u_2_3_1      *              1             0             1 
    56 u_1_3_2      *              0             0             1 
    57 u_2_3_2      *              1             0             1 
    58 u_1_3_5      *              0             0             1 
    59 u_2_3_5      *              1             0             1 
    60 u_1_3_6      *              0             0             1 
    61 u_2_3_6      *              0             0             1 
    62 u_1_4_1      *              0             0             1 
    63 u_2_4_1      *              1             0             1 
    64 u_1_4_2      *              0             0             1 
    65 u_2_4_2      *              1             0             1 
    66 u_1_4_5      *              0             0             1 
    67 u_2_4_5      *              0             0             1 
    68 u_1_4_6      *              0             0             1 
    69 u_2_4_6      *              0             0             1 
    70 u_1_5_1      *              1             0             1 
    71 u_2_5_1      *              1             0             1 
    72 u_1_5_2      *              1             0             1 
    73 u_2_5_2      *              1             0             1 
    74 u_1_5_3      *              1             0             1 
    75 u_2_5_3      *              0             0             1 
    76 u_1_5_4      *              1             0             1 
    77 u_2_5_4      *              1             0             1 
    78 u_1_6_2      *              1             0             1 
    79 u_2_6_2      *              1             0             1 
    80 u_1_6_3      *              1             0             1 
    81 u_2_6_3      *              1             0             1 
    82 u_1_6_4      *              1             0             1 
    83 u_2_6_4      *              1             0             1 
    84 u_1_6_7      *              1             0             1 
    85 u_2_6_7      *              0             0             1 
    86 u_1_7_1      *              0             0             1 
    87 u_2_7_1      *              1             0             1 
    88 u_1_7_6      *              0             0             1 
    89 u_2_7_6      *              1             0             1 

Integer feasibility conditions:

KKT.PE: max.abs.err = 0.00e+00 on row 0
        max.rel.err = 0.00e+00 on row 0
        High quality

KKT.PB: max.abs.err = 2.66e-15 on row 193
        max.rel.err = 7.26e-16 on row 193
        High quality

End of output
